Optimal - objective value -65.30900000
      2 squad[3]                                   1                       0
      3 squad[4]                                   1                       0
     13 squad[17]                                  1                       0
     39 squad[44]                                  1                       0
     41 squad[46]                                  1                       0
     66 squad[68]                                  1                       0
     91 squad[91]                                  1                       0
     99 squad[99]                                  1                       0
    175 squad[171]                                 1                       0
    186 squad[182]                                 1                       0
    327 squad[307]                                 1                       0
    351 squad[328]                                 1                       0
    428 squad[401]                                 1                       0
    462 squad[433]                                 1                       0
    474 squad[446]                                 1                       0
    612 lineup[3]                                  1                   -4.26
    613 lineup[4]                                  1                    -5.5
    623 lineup[17]                                 1                   -6.79
    649 lineup[44]                                 1                   -3.58
    701 lineup[91]                                 1                   -3.74
    709 lineup[99]                                 1                   -6.01
    785 lineup[171]                                1                    -3.7
    796 lineup[182]                                1                   -7.04
    961 lineup[328]                                1                   -6.07
   1038 lineup[401]                                1                   -5.88
   1072 lineup[433]                                1                   -5.02
   1406 captain[182]                               1                   -7.04
   1843 vicecap[17]                                1                  -0.679
